12 18
1 3 15600 1
1 6 27200 1
1 11 15600 1
2 3 18600 1
2 8 27200 1
2 11 23700 1
3 10 20800 1
4 5 18100 1
4 7 20800 1
4 12 25000 1
5 9 32400 1
5 11 32400 1
6 9 25000 1
6 11 16500 1
7 11 30500 1
7 12 14200 1
8 10 19500 1
8 12 29400 1
17
1 5
1 8
1 9
2 6
2 9
2 10 
3 7 
3 10 
3 11 
4 8 
4 11 
4 12 
5 9 
5 12 
6 10 
7 11 
8 12 
6
1
1 5
